
Gurobi 10.0.1 (linux64) logging started Sun Nov 26 15:54:27 2023

Set parameter LogFile to value "ArtificialInstance/ExperimentV2/S3T3K2/AdRo/gurobiDoRo79.txt"
Gurobi Optimizer version 10.0.1 build v10.0.1rc0 (linux64)

CPU model: AMD EPYC 7H12 64-Core Processor, instruction set [SSE2|AVX|AVX2]
Thread count: 128 physical cores, 128 logical processors, using up to 32 threads

Academic license 656792 - for non-commercial use only - registered to b.___@student.vu.nl
Optimize a model with 6867 rows, 6733 columns and 26021 nonzeros
Model fingerprint: 0xe33e3b2a
Variable types: 1 continuous, 6732 integer (6732 binary)
Coefficient statistics:
  Matrix range     [1e+00, 4e+01]
  Objective range  [1e+00, 2e+01]
  Bounds range     [1e+00, 1e+00]
  RHS range        [1e+00, 1e+00]
Presolve removed 2683 rows and 2497 columns
Presolve time: 0.08s
Presolved: 4184 rows, 4236 columns, 16370 nonzeros
Variable types: 1 continuous, 4235 integer (4235 binary)
Found heuristic solution: objective 90.5310460

Root relaxation: objective 7.815377e+01, 1615 iterations, 0.06 seconds (0.04 work units)

    Nodes    |    Current Node    |     Objective Bounds      |     Work
 Expl Unexpl |  Obj  Depth IntInf | Incumbent    BestBd   Gap | It/Node Time

     0     0   78.15377    0  104   90.53105   78.15377  13.7%     -    0s
H    0     0                      78.1537676   78.15377  0.00%     -    0s
     0     0   78.15377    0  104   78.15377   78.15377  0.00%     -    0s

Explored 1 nodes (2790 simplex iterations) in 0.21 seconds (0.14 work units)
Thread count was 32 (of 128 available processors)

Solution count 2: 78.1538 90.531 

Optimal solution found (tolerance 1.00e-04)
Best objective 7.815376759473e+01, best bound 7.815376759473e+01, gap 0.0000%
